instances/bobilib/pure-integer/misc/milp_4_20_10_0110.lp
\ Model milp_4_20_10_0110
\ LP format - for model browsing. Use MPS format to capture full model detail.
\ Signature: 0xef3e083d924f807a
Minimize
  - C0000000 - 5 C0000001 - 9 C0000002 - 3 C0000003 - 5 C0000004
   - 6 C0000005 - 2 C0000006 - 6 C0000007 - C0000008 - 6 C0000009
   - 2 C0000010 - 2 C0000011 - 9 C0000012 - 4 C0000013 - 8 C0000014
   - 9 C0000015 - 9 C0000016 - 4 C0000017 - 3 C0000018 - 3 C0000019
Subject To
 R0000000: - 8 C0000001 - 3 C0000002 - 6 C0000003 - 3 C0000004 - 2 C0000005
   - 5 C0000006 - 9 C0000008 - 2 C0000009 - 4 C0000011 - 2 C0000012
   - 10 C0000013 - 5 C0000014 - 3 C0000015 - 3 C0000017 - 2 C0000018
   - 7 C0000019 >= -116
 R0000001: - 8 C0000000 - 7 C0000001 - C0000002 - 5 C0000004 - 10 C0000005
   - 2 C0000006 - 3 C0000007 - 2 C0000008 - 10 C0000009 - 10 C0000010
   - 6 C0000011 - 10 C0000013 - 3 C0000014 - 10 C0000016 - 10 C0000017
   - 5 C0000018 - 9 C0000019 >= -151
 R0000002: - 5 C0000000 - 9 C0000004 - 4 C0000005 - 2 C0000007 - 7 C0000010
   - 10 C0000011 - C0000012 - 3 C0000013 - 2 C0000014 - 2 C0000015
   - 8 C0000016 - 4 C0000018 - 4 C0000019 >= -90
 R0000003: - 3 C0000000 - C0000001 - 9 C0000003 - 5 C0000004 - C0000005
   - 9 C0000006 - 6 C0000007 - 8 C0000008 - 5 C0000009 - 6 C0000010
   - 8 C0000011 - 10 C0000012 - 7 C0000013 - 5 C0000014 - 2 C0000016
   - 8 C0000017 - 6 C0000018 - 6 C0000019 >= -124
Bounds
Generals
 C0000000 C0000001 C0000002 C0000003 C0000004 C0000005 C0000006 C0000007
 C0000008 C0000009 C0000010 C0000011 C0000012 C0000013 C0000014 C0000015
 C0000016 C0000017 C0000018 C0000019
End
